10
0 441 0
273 281 3
164 179 9
368 377 1
355 361 1
224 238 9
35 50 6
191 201 1
124 143 9
49 62 5
0 29 47 48 28 15 35 59 79 62
14 0 10 54 80 57 97 99 80 77
33 56 0 87 7 67 80 17 63 79
67 1 2 0 41 47 95 33 75 51
27 60 80 9 0 82 66 60 2 74
96 32 26 61 60 0 12 40 4 62
25 59 57 52 17 60 0 8 58 13
88 74 18 30 60 34 15 0 29 84
95 43 33 55 60 88 59 50 0 82
97 45 97 1 36 57 89 81 67 0
0 59 76 4 49 23 40 61 46 75
59 0 28 61 13 38 73 14 20 19
76 28 0 77 29 53 75 16 48 14
4 61 77 0 51 24 37 63 50 77
49 13 29 51 0 27 60 13 22 26
23 38 53 24 27 0 40 39 32 53
40 73 75 37 60 40 0 67 71 82
61 14 16 63 13 39 67 0 32 15
46 20 48 50 22 32 71 32 0 39
75 19 14 77 26 53 82 15 39 0
Cost:  370
Route:  0  6  9  8  2  7  5  1  4  3  